NAME : local_9
TYPE : ATSP
DIMENSION : 7
EDGE_WEIGHT_TYPE : EXPLICIT
EDGE_WEIGHT_FORMAT : FULL_MATRIX
EDGE_WEIGHT_SECTION
0 610 499 10000000 954 10000000 641 
0 0 10000000 725 407 10000000 375 
0 10000000 0 10000000 10000000 10000000 10000000 
0 725 10000000 0 352 803 886 
0 407 10000000 352 0 985 609 
0 10000000 10000000 803 1009 0 10000000 
0 10000000 10000000 10000000 10000000 10000000 0 
EOF